p edge 100 2456
v 1 3
v 2 5
v 3 2
v 4 3
v 5 5
v 6 3
v 7 4
v 8 5
v 9 5
v 10 5
v 11 1
v 12 4
v 13 3
v 14 3
v 15 4
v 16 4
v 17 4
v 18 3
v 19 2
v 20 2
v 21 1
v 22 1
v 23 4
v 24 4
v 25 4
v 26 2
v 27 1
v 28 2
v 29 1
v 30 3
v 31 2
v 32 4
v 33 3
v 34 3
v 35 2
v 36 2
v 37 1
v 38 5
v 39 2
v 40 5
v 41 5
v 42 3
v 43 4
v 44 2
v 45 1
v 46 2
v 47 1
v 48 4
v 49 4
v 50 3
v 51 5
v 52 5
v 53 4
v 54 4
v 55 3
v 56 2
v 57 5
v 58 4
v 59 3
v 60 1
v 61 2
v 62 5
v 63 4
v 64 4
v 65 3
v 66 1
v 67 1
v 68 3
v 69 5
v 70 2
v 71 3
v 72 5
v 73 5
v 74 1
v 75 2
v 76 5
v 77 3
v 78 2
v 79 4
v 80 1
v 81 5
v 82 4
v 83 5
v 84 3
v 85 3
v 86 3
v 87 4
v 88 2
v 89 1
v 90 2
v 91 2
v 92 3
v 93 1
v 94 1
v 95 1
v 96 4
v 97 1
v 98 1
v 99 1
v 100 1
e 1 2
e 1 3
e 1 4
e 1 6
e 1 7
e 1 10
e 1 11
e 1 13
e 1 17
e 1 21
e 1 22
e 1 25
e 1 26
e 1 27
e 1 28
e 1 29
e 1 30
e 1 34
e 1 37
e 1 40
e 1 42
e 1 43
e 1 46
e 1 47
e 1 48
e 1 49
e 1 54
e 1 55
e 1 56
e 1 58
e 1 60
e 1 64
e 1 65
e 1 66
e 1 67
e 1 68
e 1 69
e 1 75
e 1 77
e 1 79
e 1 80
e 1 81
e 1 83
e 1 84
e 1 85
e 1 87
e 1 88
e 1 89
e 1 91
e 1 92
e 1 93
e 1 100
e 2 5
e 2 7
e 2 9
e 2 13
e 2 14
e 2 15
e 2 20
e 2 22
e 2 23
e 2 24
e 2 30
e 2 33
e 2 34
e 2 35
e 2 36
e 2 38
e 2 39
e 2 42
e 2 43
e 2 46
e 2 47
e 2 49
e 2 50
e 2 52
e 2 53
e 2 54
e 2 57
e 2 58
e 2 64
e 2 65
e 2 67
e 2 68
e 2 69
e 2 70
e 2 71
e 2 72
e 2 76
e 2 77
e 2 79
e 2 80
e 2 81
e 2 83
e 2 84
e 2 85
e 2 88
e 2 89
e 2 90
e 2 91
e 2 93
e 2 96
e 2 99
e 3 5
e 3 6
e 3 10
e 3 20
e 3 22
e 3 26
e 3 27
e 3 29
e 3 30
e 3 31
e 3 32
e 3 36
e 3 38
e 3 39
e 3 40
e 3 42
e 3 43
e 3 45
e 3 47
e 3 48
e 3 50
e 3 54
e 3 58
e 3 59
e 3 60
e 3 66
e 3 69
e 3 70
e 3 71
e 3 72
e 3 74
e 3 75
e 3 76
e 3 79
e 3 82
e 3 83
e 3 87
e 3 89
e 3 92
e 3 94
e 3 97
e 3 99
e 4 5
e 4 11
e 4 14
e 4 18
e 4 19
e 4 21
e 4 22
e 4 23
e 4 24
e 4 33
e 4 36
e 4 37
e 4 38
e 4 42
e 4 46
e 4 47
e 4 48
e 4 50
e 4 51
e 4 52
e 4 53
e 4 55
e 4 56
e 4 57
e 4 58
e 4 59
e 4 60
e 4 63
e 4 64
e 4 65
e 4 67
e 4 69
e 4 70
e 4 72
e 4 73
e 4 75
e 4 76
e 4 78
e 4 81
e 4 82
e 4 84
e 4 87
e 4 88
e 4 90
e 4 93
e 4 99
e 4 100
e 5 7
e 5 8
e 5 10
e 5 11
e 5 12
e 5 16
e 5 18
e 5 20
e 5 21
e 5 22
e 5 23
e 5 24
e 5 26
e 5 30
e 5 32
e 5 36
e 5 37
e 5 38
e 5 39
e 5 40
e 5 41
e 5 47
e 5 48
e 5 49
e 5 53
e 5 54
e 5 55
e 5 57
e 5 59
e 5 61
e 5 63
e 5 64
e 5 65
e 5 66
e 5 67
e 5 68
e 5 70
e 5 71
e 5 73
e 5 75
e 5 77
e 5 78
e 5 79
e 5 81
e 5 84
e 5 85
e 5 89
e 5 91
e 5 100
e 6 7
e 6 8
e 6 9
e 6 12
e 6 13
e 6 16
e 6 18
e 6 19
e 6 20
e 6 21
e 6 25
e 6 27
e 6 28
e 6 31
e 6 32
e 6 33
e 6 36
e 6 45
e 6 47
e 6 48
e 6 50
e 6 51
e 6 52
e 6 53
e 6 55
e 6 56
e 6 57
e 6 59
e 6 60
e 6 62
e 6 63
e 6 64
e 6 65
e 6 66
e 6 68
e 6 70
e 6 71
e 6 73
e 6 75
e 6 76
e 6 78
e 6 80
e 6 81
e 6 89
e 6 90
e 6 91
e 6 94
e 6 97
e 6 98
e 6 99
e 7 9
e 7 10
e 7 12
e 7 13
e 7 14
e 7 17
e 7 18
e 7 19
e 7 20
e 7 25
e 7 26
e 7 30
e 7 33
e 7 34
e 7 35
e 7 37
e 7 39
e 7 40
e 7 42
e 7 43
e 7 45
e 7 46
e 7 47
e 7 52
e 7 54
e 7 56
e 7 58
e 7 64
e 7 65
e 7 66
e 7 68
e 7 69
e 7 71
e 7 77
e 7 78
e 7 79
e 7 80
e 7 83
e 7 87
e 7 88
e 7 92
e 7 94
e 7 96
e 7 97
e 7 98
e 7 99
e 7 100
e 8 9
e 8 12
e 8 13
e 8 15
e 8 21
e 8 22
e 8 23
e 8 24
e 8 25
e 8 26
e 8 27
e 8 28
e 8 29
e 8 33
e 8 34
e 8 35
e 8 36
e 8 40
e 8 43
e 8 44
e 8 45
e 8 46
e 8 47
e 8 48
e 8 51
e 8 52
e 8 60
e 8 63
e 8 66
e 8 67
e 8 70
e 8 73
e 8 74
e 8 76
e 8 77
e 8 78
e 8 79
e 8 80
e 8 83
e 8 88
e 8 90
e 8 97
e 8 98
e 8 99
e 9 10
e 9 11
e 9 12
e 9 13
e 9 14
e 9 15
e 9 16
e 9 17
e 9 22
e 9 24
e 9 26
e 9 28
e 9 29
e 9 31
e 9 33
e 9 37
e 9 43
e 9 45
e 9 46
e 9 48
e 9 49
e 9 51
e 9 54
e 9 57
e 9 60
e 9 63
e 9 65
e 9 71
e 9 72
e 9 75
e 9 81
e 9 82
e 9 86
e 9 88
e 9 89
e 9 94
e 9 95
e 9 98
e 10 15
e 10 17
e 10 18
e 10 20
e 10 21
e 10 24
e 10 25
e 10 27
e 10 32
e 10 33
e 10 36
e 10 37
e 10 38
e 10 39
e 10 41
e 10 43
e 10 48
e 10 52
e 10 53
e 10 54
e 10 55
e 10 56
e 10 58
e 10 59
e 10 60
e 10 61
e 10 63
e 10 65
e 10 66
e 10 67
e 10 71
e 10 72
e 10 73
e 10 74
e 10 75
e 10 77
e 10 79
e 10 80
e 10 81
e 10 83
e 10 84
e 10 86
e 10 88
e 10 89
e 10 95
e 10 99
e 10 100
e 11 12
e 11 13
e 11 16
e 11 18
e 11 19
e 11 21
e 11 23
e 11 25
e 11 26
e 11 27
e 11 28
e 11 31
e 11 34
e 11 37
e 11 38
e 11 40
e 11 43
e 11 44
e 11 45
e 11 47
e 11 51
e 11 53
e 11 54
e 11 56
e 11 59
e 11 60
e 11 61
e 11 62
e 11 63
e 11 64
e 11 65
e 11 68
e 11 69
e 11 70
e 11 76
e 11 79
e 11 80
e 11 87
e 11 91
e 11 92
e 11 94
e 11 95
e 11 97
e 11 98
e 11 99
e 12 13
e 12 15
e 12 16
e 12 17
e 12 19
e 12 20
e 12 22
e 12 23
e 12 24
e 12 25
e 12 26
e 12 30
e 12 31
e 12 35
e 12 36
e 12 39
e 12 42
e 12 44
e 12 46
e 12 48
e 12 50
e 12 51
e 12 54
e 12 55
e 12 58
e 12 62
e 12 72
e 12 73
e 12 77
e 12 78
e 12 80
e 12 83
e 12 84
e 12 85
e 12 88
e 12 89
e 12 92
e 12 98
e 13 14
e 13 15
e 13 16
e 13 18
e 13 20
e 13 21
e 13 25
e 13 26
e 13 28
e 13 31
e 13 32
e 13 37
e 13 38
e 13 39
e 13 42
e 13 43
e 13 46
e 13 49
e 13 50
e 13 52
e 13 54
e 13 55
e 13 57
e 13 58
e 13 59
e 13 61
e 13 62
e 13 68
e 13 69
e 13 72
e 13 74
e 13 79
e 13 80
e 13 81
e 13 83
e 13 87
e 13 88
e 13 89
e 13 92
e 13 94
e 13 96
e 13 97
e 13 98
e 13 99
e 13 100
e 14 17
e 14 18
e 14 20
e 14 23
e 14 25
e 14 29
e 14 30
e 14 31
e 14 32
e 14 33
e 14 35
e 14 36
e 14 37
e 14 38
e 14 39
e 14 42
e 14 45
e 14 47
e 14 48
e 14 50
e 14 51
e 14 52
e 14 56
e 14 57
e 14 58
e 14 59
e 14 62
e 14 64
e 14 65
e 14 66
e 14 67
e 14 71
e 14 74
e 14 79
e 14 82
e 14 84
e 14 85
e 14 86
e 14 87
e 14 88
e 14 89
e 14 92
e 14 95
e 14 99
e 14 100
e 15 16
e 15 17
e 15 20
e 15 23
e 15 24
e 15 25
e 15 26
e 15 27
e 15 28
e 15 36
e 15 38
e 15 40
e 15 41
e 15 44
e 15 46
e 15 48
e 15 51
e 15 54
e 15 55
e 15 59
e 15 66
e 15 68
e 15 70
e 15 71
e 15 73
e 15 74
e 15 75
e 15 78
e 15 80
e 15 82
e 15 84
e 15 87
e 15 88
e 15 95
e 15 96
e 15 99
e 16 17
e 16 19
e 16 20
e 16 29
e 16 30
e 16 32
e 16 33
e 16 36
e 16 37
e 16 42
e 16 45
e 16 46
e 16 51
e 16 52
e 16 56
e 16 64
e 16 67
e 16 68
e 16 70
e 16 74
e 16 75
e 16 76
e 16 78
e 16 80
e 16 81
e 16 85
e 16 86
e 16 87
e 16 88
e 16 90
e 16 91
e 16 92
e 16 94
e 16 95
e 16 96
e 16 99
e 16 100
e 17 18
e 17 26
e 17 28
e 17 29
e 17 30
e 17 31
e 17 43
e 17 44
e 17 45
e 17 47
e 17 48
e 17 58
e 17 59
e 17 60
e 17 61
e 17 62
e 17 63
e 17 64
e 17 65
e 17 67
e 17 69
e 17 73
e 17 77
e 17 78
e 17 81
e 17 84
e 17 85
e 17 86
e 17 87
e 17 88
e 17 90
e 17 91
e 17 93
e 17 94
e 17 95
e 18 19
e 18 21
e 18 22
e 18 23
e 18 25
e 18 27
e 18 28
e 18 29
e 18 30
e 18 31
e 18 33
e 18 34
e 18 37
e 18 38
e 18 41
e 18 45
e 18 47
e 18 49
e 18 54
e 18 55
e 18 56
e 18 57
e 18 59
e 18 60
e 18 61
e 18 63
e 18 66
e 18 69
e 18 70
e 18 73
e 18 75
e 18 76
e 18 77
e 18 78
e 18 79
e 18 80
e 18 81
e 18 83
e 18 91
e 18 92
e 18 96
e 18 97
e 19 21
e 19 27
e 19 28
e 19 29
e 19 32
e 19 33
e 19 34
e 19 39
e 19 44
e 19 46
e 19 47
e 19 50
e 19 55
e 19 56
e 19 58
e 19 59
e 19 61
e 19 64
e 19 66
e 19 68
e 19 69
e 19 70
e 19 72
e 19 75
e 19 77
e 19 79
e 19 81
e 19 83
e 19 84
e 19 87
e 19 88
e 19 89
e 19 90
e 19 91
e 19 92
e 19 94
e 19 96
e 19 97
e 19 100
e 20 21
e 20 23
e 20 24
e 20 27
e 20 29
e 20 30
e 20 31
e 20 32
e 20 34
e 20 35
e 20 38
e 20 39
e 20 41
e 20 44
e 20 48
e 20 49
e 20 51
e 20 53
e 20 55
e 20 56
e 20 57
e 20 59
e 20 60
e 20 62
e 20 66
e 20 69
e 20 73
e 20 75
e 20 77
e 20 78
e 20 79
e 20 81
e 20 83
e 20 85
e 20 86
e 20 89
e 20 90
e 20 91
e 20 93
e 20 95
e 20 96
e 20 100
e 21 23
e 21 26
e 21 30
e 21 31
e 21 34
e 21 37
e 21 38
e 21 42
e 21 43
e 21 44
e 21 46
e 21 47
e 21 49
e 21 50
e 21 58
e 21 60
e 21 64
e 21 67
e 21 76
e 21 77
e 21 80
e 21 81
e 21 82
e 21 83
e 21 85
e 21 90
e 21 93
e 21 97
e 22 24
e 22 31
e 22 32
e 22 33
e 22 34
e 22 35
e 22 38
e 22 41
e 22 43
e 22 47
e 22 48
e 22 50
e 22 52
e 22 53
e 22 56
e 22 58
e 22 62
e 22 63
e 22 68
e 22 69
e 22 72
e 22 73
e 22 76
e 22 77
e 22 80
e 22 83
e 22 84
e 22 85
e 22 86
e 22 87
e 22 88
e 22 92
e 22 93
e 22 94
e 22 95
e 22 98
e 23 24
e 23 25
e 23 27
e 23 28
e 23 29
e 23 30
e 23 32
e 23 34
e 23 36
e 23 37
e 23 40
e 23 42
e 23 48
e 23 49
e 23 52
e 23 54
e 23 56
e 23 57
e 23 59
e 23 61
e 23 66
e 23 69
e 23 70
e 23 71
e 23 73
e 23 74
e 23 75
e 23 76
e 23 77
e 23 78
e 23 79
e 23 81
e 23 82
e 23 84
e 23 88
e 23 89
e 23 90
e 23 92
e 23 93
e 23 97
e 24 29
e 24 30
e 24 32
e 24 33
e 24 35
e 24 37
e 24 38
e 24 40
e 24 41
e 24 42
e 24 43
e 24 44
e 24 46
e 24 47
e 24 49
e 24 52
e 24 53
e 24 54
e 24 55
e 24 62
e 24 65
e 24 70
e 24 72
e 24 73
e 24 78
e 24 79
e 24 84
e 24 85
e 24 86
e 24 88
e 24 90
e 24 94
e 24 98
e 24 100
e 25 26
e 25 27
e 25 30
e 25 32
e 25 35
e 25 36
e 25 40
e 25 41
e 25 42
e 25 47
e 25 52
e 25 54
e 25 55
e 25 56
e 25 57
e 25 62
e 25 63
e 25 65
e 25 66
e 25 72
e 25 73
e 25 74
e 25 75
e 25 76
e 25 79
e 25 80
e 25 81
e 25 82
e 25 83
e 25 85
e 25 86
e 25 90
e 25 94
e 25 96
e 25 98
e 25 99
e 26 29
e 26 32
e 26 33
e 26 35
e 26 36
e 26 40
e 26 41
e 26 45
e 26 46
e 26 47
e 26 48
e 26 49
e 26 52
e 26 53
e 26 55
e 26 56
e 26 58
e 26 59
e 26 60
e 26 66
e 26 67
e 26 68
e 26 70
e 26 72
e 26 73
e 26 74
e 26 75
e 26 77
e 26 79
e 26 80
e 26 81
e 26 85
e 26 87
e 26 88
e 26 91
e 26 92
e 26 95
e 27 30
e 27 32
e 27 34
e 27 35
e 27 36
e 27 40
e 27 41
e 27 42
e 27 44
e 27 45
e 27 52
e 27 53
e 27 55
e 27 56
e 27 57
e 27 61
e 27 62
e 27 66
e 27 68
e 27 70
e 27 71
e 27 73
e 27 74
e 27 75
e 27 77
e 27 84
e 27 88
e 27 89
e 27 90
e 27 91
e 27 93
e 27 94
e 27 95
e 27 96
e 27 97
e 28 30
e 28 34
e 28 36
e 28 37
e 28 38
e 28 39
e 28 40
e 28 41
e 28 43
e 28 44
e 28 46
e 28 47
e 28 48
e 28 55
e 28 58
e 28 60
e 28 61
e 28 63
e 28 65
e 28 69
e 28 70
e 28 72
e 28 73
e 28 75
e 28 78
e 28 79
e 28 80
e 28 81
e 28 85
e 28 86
e 28 88
e 28 91
e 28 93
e 28 98
e 28 99
e 28 100
e 29 35
e 29 37
e 29 40
e 29 43
e 29 46
e 29 49
e 29 50
e 29 52
e 29 53
e 29 56
e 29 58
e 29 59
e 29 61
e 29 64
e 29 65
e 29 66
e 29 68
e 29 69
e 29 72
e 29 74
e 29 76
e 29 77
e 29 80
e 29 81
e 29 83
e 29 84
e 29 86
e 29 87
e 29 88
e 29 91
e 29 93
e 29 94
e 29 95
e 29 96
e 29 97
e 29 100
e 30 31
e 30 32
e 30 34
e 30 36
e 30 37
e 30 39
e 30 40
e 30 42
e 30 43
e 30 44
e 30 47
e 30 48
e 30 51
e 30 56
e 30 57
e 30 60
e 30 61
e 30 63
e 30 64
e 30 67
e 30 68
e 30 70
e 30 71
e 30 76
e 30 81
e 30 82
e 30 84
e 30 89
e 30 92
e 30 95
e 30 97
e 30 98
e 30 99
e 30 100
e 31 32
e 31 33
e 31 34
e 31 35
e 31 36
e 31 37
e 31 41
e 31 42
e 31 44
e 31 49
e 31 53
e 31 54
e 31 55
e 31 56
e 31 57
e 31 58
e 31 59
e 31 60
e 31 61
e 31 62
e 31 69
e 31 70
e 31 71
e 31 74
e 31 77
e 31 78
e 31 81
e 31 82
e 31 83
e 31 85
e 31 87
e 31 88
e 31 89
e 31 91
e 31 92
e 31 95
e 31 96
e 31 98
e 31 100
e 32 33
e 32 35
e 32 36
e 32 38
e 32 40
e 32 41
e 32 42
e 32 44
e 32 46
e 32 49
e 32 50
e 32 51
e 32 52
e 32 55
e 32 56
e 32 58
e 32 59
e 32 60
e 32 61
e 32 63
e 32 66
e 32 67
e 32 69
e 32 70
e 32 71
e 32 73
e 32 76
e 32 77
e 32 79
e 32 82
e 32 83
e 32 85
e 32 89
e 32 90
e 32 91
e 32 93
e 32 94
e 32 98
e 33 36
e 33 37
e 33 39
e 33 41
e 33 46
e 33 50
e 33 51
e 33 52
e 33 53
e 33 56
e 33 57
e 33 60
e 33 62
e 33 72
e 33 73
e 33 75
e 33 76
e 33 78
e 33 84
e 33 85
e 33 92
e 33 93
e 33 94
e 33 95
e 33 99
e 34 35
e 34 36
e 34 38
e 34 39
e 34 42
e 34 44
e 34 45
e 34 46
e 34 48
e 34 50
e 34 51
e 34 58
e 34 59
e 34 60
e 34 61
e 34 63
e 34 68
e 34 71
e 34 72
e 34 77
e 34 83
e 34 84
e 34 87
e 34 89
e 34 90
e 34 93
e 34 97
e 34 99
e 34 100
e 35 39
e 35 42
e 35 43
e 35 44
e 35 45
e 35 48
e 35 49
e 35 53
e 35 55
e 35 59
e 35 61
e 35 65
e 35 70
e 35 77
e 35 79
e 35 80
e 35 81
e 35 84
e 35 88
e 35 90
e 35 93
e 35 96
e 35 97
e 35 98
e 35 99
e 36 38
e 36 40
e 36 42
e 36 44
e 36 45
e 36 47
e 36 48
e 36 50
e 36 52
e 36 53
e 36 55
e 36 56
e 36 60
e 36 61
e 36 62
e 36 63
e 36 64
e 36 71
e 36 76
e 36 79
e 36 83
e 36 84
e 36 86
e 36 87
e 36 90
e 36 92
e 36 94
e 36 95
e 36 96
e 36 98
e 36 99
e 36 100
e 37 38
e 37 41
e 37 43
e 37 44
e 37 46
e 37 49
e 37 50
e 37 51
e 37 52
e 37 53
e 37 54
e 37 57
e 37 60
e 37 61
e 37 62
e 37 64
e 37 66
e 37 67
e 37 68
e 37 71
e 37 73
e 37 74
e 37 77
e 37 79
e 37 80
e 37 81
e 37 86
e 37 88
e 37 90
e 37 91
e 37 95
e 37 96
e 37 100
e 38 40
e 38 41
e 38 44
e 38 45
e 38 46
e 38 47
e 38 48
e 38 51
e 38 54
e 38 61
e 38 63
e 38 67
e 38 69
e 38 70
e 38 71
e 38 73
e 38 74
e 38 75
e 38 80
e 38 81
e 38 83
e 38 84
e 38 85
e 38 86
e 38 87
e 38 88
e 38 91
e 38 92
e 38 96
e 38 99
e 38 100
e 39 40
e 39 45
e 39 46
e 39 49
e 39 51
e 39 53
e 39 54
e 39 55
e 39 56
e 39 57
e 39 61
e 39 63
e 39 65
e 39 67
e 39 68
e 39 69
e 39 70
e 39 71
e 39 73
e 39 74
e 39 78
e 39 79
e 39 81
e 39 82
e 39 83
e 39 85
e 39 89
e 39 90
e 39 91
e 39 93
e 39 94
e 39 95
e 39 97
e 39 98
e 40 42
e 40 43
e 40 44
e 40 45
e 40 46
e 40 47
e 40 48
e 40 49
e 40 51
e 40 53
e 40 54
e 40 56
e 40 57
e 40 58
e 40 60
e 40 61
e 40 64
e 40 65
e 40 66
e 40 67
e 40 68
e 40 70
e 40 73
e 40 75
e 40 76
e 40 77
e 40 79
e 40 80
e 40 81
e 40 82
e 40 83
e 40 84
e 40 86
e 40 87
e 40 90
e 40 92
e 40 93
e 40 95
e 40 96
e 40 97
e 40 98
e 40 99
e 41 42
e 41 44
e 41 46
e 41 47
e 41 48
e 41 49
e 41 53
e 41 56
e 41 58
e 41 60
e 41 61
e 41 62
e 41 66
e 41 67
e 41 69
e 41 70
e 41 71
e 41 73
e 41 74
e 41 76
e 41 78
e 41 79
e 41 82
e 41 85
e 41 86
e 41 88
e 41 91
e 41 93
e 41 98
e 41 100
e 42 46
e 42 48
e 42 52
e 42 53
e 42 54
e 42 55
e 42 58
e 42 59
e 42 61
e 42 64
e 42 65
e 42 70
e 42 71
e 42 72
e 42 75
e 42 76
e 42 77
e 42 78
e 42 79
e 42 84
e 42 88
e 42 90
e 42 92
e 42 93
e 42 96
e 42 97
e 42 99
e 42 100
e 43 45
e 43 49
e 43 56
e 43 62
e 43 63
e 43 64
e 43 66
e 43 69
e 43 71
e 43 72
e 43 74
e 43 76
e 43 78
e 43 82
e 43 83
e 43 84
e 43 85
e 43 86
e 43 87
e 43 91
e 43 93
e 43 94
e 43 97
e 43 99
e 44 47
e 44 48
e 44 52
e 44 53
e 44 55
e 44 61
e 44 62
e 44 63
e 44 66
e 44 68
e 44 72
e 44 75
e 44 76
e 44 77
e 44 81
e 44 83
e 44 91
e 44 92
e 44 98
e 44 99
e 45 46
e 45 54
e 45 55
e 45 56
e 45 58
e 45 61
e 45 63
e 45 65
e 45 68
e 45 69
e 45 72
e 45 76
e 45 82
e 45 83
e 45 85
e 45 86
e 45 87
e 45 90
e 45 93
e 45 94
e 45 95
e 45 96
e 45 98
e 45 99
e 46 47
e 46 48
e 46 53
e 46 54
e 46 55
e 46 57
e 46 58
e 46 59
e 46 63
e 46 64
e 46 65
e 46 68
e 46 70
e 46 73
e 46 75
e 46 76
e 46 77
e 46 80
e 46 82
e 46 83
e 46 85
e 46 87
e 46 89
e 46 90
e 46 91
e 46 93
e 46 95
e 46 96
e 46 97
e 46 98
e 46 100
e 47 49
e 47 50
e 47 51
e 47 52
e 47 55
e 47 56
e 47 58
e 47 59
e 47 62
e 47 64
e 47 70
e 47 71
e 47 72
e 47 75
e 47 77
e 47 79
e 47 80
e 47 84
e 47 85
e 47 91
e 47 92
e 47 95
e 47 96
e 47 97
e 47 98
e 48 49
e 48 50
e 48 51
e 48 53
e 48 56
e 48 59
e 48 60
e 48 63
e 48 64
e 48 67
e 48 69
e 48 79
e 48 81
e 48 82
e 48 83
e 48 86
e 48 87
e 48 88
e 48 91
e 48 95
e 48 96
e 48 97
e 48 100
e 49 51
e 49 53
e 49 56
e 49 58
e 49 60
e 49 62
e 49 65
e 49 68
e 49 70
e 49 72
e 49 73
e 49 74
e 49 77
e 49 81
e 49 82
e 49 83
e 49 84
e 49 86
e 49 87
e 49 91
e 49 92
e 49 95
e 49 97
e 50 52
e 50 53
e 50 54
e 50 55
e 50 56
e 50 58
e 50 60
e 50 62
e 50 70
e 50 71
e 50 72
e 50 73
e 50 76
e 50 77
e 50 78
e 50 79
e 50 81
e 50 84
e 50 85
e 50 87
e 50 88
e 50 90
e 50 93
e 50 94
e 50 95
e 50 98
e 50 100
e 51 53
e 51 54
e 51 55
e 51 60
e 51 62
e 51 63
e 51 65
e 51 66
e 51 67
e 51 68
e 51 69
e 51 71
e 51 72
e 51 73
e 51 74
e 51 75
e 51 76
e 51 78
e 51 79
e 51 80
e 51 88
e 51 89
e 51 90
e 51 91
e 51 92
e 51 93
e 51 94
e 51 98
e 51 100
e 52 54
e 52 58
e 52 59
e 52 62
e 52 63
e 52 64
e 52 66
e 52 67
e 52 68
e 52 69
e 52 73
e 52 74
e 52 75
e 52 77
e 52 79
e 52 80
e 52 81
e 52 83
e 52 86
e 52 87
e 52 90
e 52 91
e 52 96
e 52 100
e 53 54
e 53 56
e 53 60
e 53 62
e 53 64
e 53 66
e 53 68
e 53 69
e 53 70
e 53 74
e 53 77
e 53 78
e 53 82
e 53 83
e 53 84
e 53 85
e 53 89
e 53 90
e 53 91
e 53 93
e 53 94
e 53 95
e 53 96
e 53 98
e 53 100
e 54 55
e 54 56
e 54 57
e 54 58
e 54 59
e 54 60
e 54 67
e 54 68
e 54 71
e 54 72
e 54 73
e 54 74
e 54 75
e 54 76
e 54 77
e 54 80
e 54 82
e 54 83
e 54 84
e 54 86
e 54 88
e 54 91
e 54 92
e 54 95
e 54 99
e 54 100
e 55 56
e 55 57
e 55 58
e 55 59
e 55 61
e 55 62
e 55 63
e 55 69
e 55 70
e 55 74
e 55 75
e 55 77
e 55 78
e 55 82
e 55 83
e 55 89
e 55 94
e 55 95
e 55 96
e 55 97
e 55 99
e 55 100
e 56 59
e 56 60
e 56 63
e 56 68
e 56 69
e 56 70
e 56 71
e 56 72
e 56 73
e 56 74
e 56 77
e 56 78
e 56 80
e 56 81
e 56 83
e 56 85
e 56 88
e 56 89
e 56 90
e 56 94
e 56 96
e 56 98
e 56 99
e 56 100
e 57 59
e 57 61
e 57 63
e 57 64
e 57 67
e 57 69
e 57 70
e 57 74
e 57 75
e 57 77
e 57 80
e 57 82
e 57 84
e 57 85
e 57 86
e 57 87
e 57 89
e 57 93
e 57 96
e 57 97
e 57 100
e 58 60
e 58 62
e 58 63
e 58 66
e 58 67
e 58 69
e 58 70
e 58 71
e 58 72
e 58 73
e 58 74
e 58 78
e 58 79
e 58 80
e 58 81
e 58 82
e 58 86
e 58 87
e 58 89
e 58 91
e 58 93
e 58 96
e 58 99
e 58 100
e 59 60
e 59 61
e 59 65
e 59 69
e 59 70
e 59 73
e 59 74
e 59 76
e 59 78
e 59 79
e 59 80
e 59 82
e 59 85
e 59 87
e 59 88
e 59 90
e 59 93
e 59 95
e 59 98
e 59 100
e 60 62
e 60 65
e 60 67
e 60 68
e 60 70
e 60 75
e 60 78
e 60 79
e 60 80
e 60 81
e 60 82
e 60 83
e 60 85
e 60 86
e 60 89
e 60 90
e 60 91
e 60 92
e 60 93
e 60 95
e 60 97
e 60 98
e 60 100
e 61 62
e 61 65
e 61 67
e 61 69
e 61 70
e 61 72
e 61 73
e 61 75
e 61 77
e 61 79
e 61 80
e 61 81
e 61 82
e 61 84
e 61 86
e 61 88
e 61 90
e 61 91
e 61 94
e 61 96
e 61 97
e 61 99
e 62 64
e 62 65
e 62 66
e 62 69
e 62 72
e 62 73
e 62 74
e 62 75
e 62 76
e 62 77
e 62 80
e 62 82
e 62 83
e 62 84
e 62 87
e 62 88
e 62 89
e 62 90
e 62 94
e 62 96
e 62 98
e 62 99
e 63 65
e 63 68
e 63 69
e 63 70
e 63 71
e 63 73
e 63 76
e 63 77
e 63 78
e 63 79
e 63 82
e 63 85
e 63 90
e 63 91
e 63 92
e 63 93
e 63 94
e 63 95
e 63 96
e 63 97
e 63 98
e 63 99
e 63 100
e 64 67
e 64 68
e 64 71
e 64 72
e 64 73
e 64 74
e 64 75
e 64 79
e 64 80
e 64 87
e 64 88
e 64 91
e 64 92
e 64 94
e 64 95
e 64 96
e 64 97
e 64 99
e 64 100
e 65 66
e 65 68
e 65 69
e 65 72
e 65 74
e 65 77
e 65 79
e 65 83
e 65 84
e 65 86
e 65 93
e 65 94
e 65 95
e 65 96
e 65 97
e 65 98
e 66 68
e 66 69
e 66 70
e 66 71
e 66 72
e 66 73
e 66 79
e 66 80
e 66 81
e 66 84
e 66 85
e 66 87
e 66 90
e 66 94
e 66 98
e 66 99
e 66 100
e 67 70
e 67 73
e 67 74
e 67 76
e 67 78
e 67 80
e 67 82
e 67 83
e 67 84
e 67 86
e 67 88
e 67 89
e 67 90
e 67 92
e 67 93
e 67 95
e 67 97
e 67 98
e 67 99
e 67 100
e 68 70
e 68 71
e 68 72
e 68 75
e 68 78
e 68 80
e 68 84
e 68 85
e 68 87
e 68 91
e 68 92
e 68 93
e 68 94
e 68 95
e 68 96
e 68 99
e 68 100
e 69 73
e 69 76
e 69 78
e 69 79
e 69 83
e 69 84
e 69 90
e 69 91
e 69 95
e 69 97
e 69 98
e 70 71
e 70 72
e 70 73
e 70 74
e 70 75
e 70 76
e 70 80
e 70 83
e 70 84
e 70 85
e 70 86
e 70 87
e 70 89
e 70 90
e 70 98
e 70 100
e 71 72
e 71 77
e 71 78
e 71 81
e 71 83
e 71 84
e 71 85
e 71 86
e 71 87
e 71 88
e 71 89
e 71 90
e 71 92
e 71 93
e 71 94
e 71 96
e 71 100
e 72 74
e 72 75
e 72 76
e 72 77
e 72 78
e 72 80
e 72 82
e 72 87
e 72 88
e 72 90
e 72 91
e 72 92
e 72 96
e 72 98
e 72 99
e 73 74
e 73 77
e 73 78
e 73 79
e 73 81
e 73 83
e 73 84
e 73 86
e 73 90
e 73 92
e 73 93
e 73 97
e 73 99
e 73 100
e 74 75
e 74 78
e 74 81
e 74 82
e 74 86
e 74 89
e 74 91
e 74 92
e 74 94
e 74 95
e 74 98
e 75 76
e 75 81
e 75 82
e 75 83
e 75 84
e 75 85
e 75 87
e 75 88
e 75 89
e 75 92
e 75 97
e 75 99
e 75 100
e 76 79
e 76 80
e 76 83
e 76 85
e 76 87
e 76 88
e 76 89
e 76 91
e 76 93
e 76 94
e 76 95
e 76 98
e 76 100
e 77 78
e 77 79
e 77 82
e 77 83
e 77 85
e 77 86
e 77 88
e 77 90
e 77 91
e 77 92
e 77 97
e 77 98
e 77 99
e 77 100
e 78 80
e 78 81
e 78 83
e 78 84
e 78 86
e 78 87
e 78 88
e 78 90
e 78 91
e 78 94
e 78 95
e 78 96
e 79 80
e 79 82
e 79 84
e 79 87
e 79 91
e 79 92
e 79 93
e 79 94
e 79 96
e 80 83
e 80 84
e 80 86
e 80 87
e 80 88
e 80 89
e 80 90
e 80 91
e 80 94
e 80 96
e 80 97
e 80 98
e 81 82
e 81 87
e 81 89
e 81 90
e 81 91
e 81 92
e 81 94
e 81 97
e 81 98
e 81 100
e 82 84
e 82 89
e 82 91
e 82 92
e 82 93
e 82 96
e 82 98
e 82 99
e 83 90
e 83 91
e 83 93
e 83 94
e 83 95
e 83 96
e 83 98
e 83 99
e 83 100
e 84 86
e 84 87
e 84 88
e 84 90
e 84 91
e 84 92
e 84 94
e 84 95
e 84 98
e 85 86
e 85 89
e 85 90
e 85 94
e 85 98
e 85 100
e 86 87
e 86 90
e 86 93
e 86 94
e 86 95
e 86 96
e 86 97
e 87 88
e 87 89
e 87 92
e 87 93
e 87 94
e 87 96
e 87 97
e 87 98
e 87 99
e 87 100
e 88 92
e 88 93
e 88 95
e 89 92
e 89 94
e 89 97
e 89 98
e 89 99
e 90 91
e 90 92
e 90 93
e 90 94
e 90 97
e 91 93
e 91 94
e 91 95
e 91 96
e 91 98
e 91 99
e 92 93
e 92 95
e 92 96
e 92 98
e 93 94
e 93 95
e 93 96
e 93 97
e 93 98
e 93 99
e 93 100
e 94 95
e 94 97
e 94 98
e 95 96
e 95 98
e 96 97
e 97 98
e 97 100
e 98 100
e 99 100
